phase2/problem_log/problem917.mps
NAME Resale_Solver
ROWS
 N  OBJ
 L  cost    
 L  weight  
 G  rep(0,0)
 G  rep(0,16)
 G  rep(1,1)
 G  rep(2,2)
 G  rep(3,3)
 G  rep(4,4)
 G  rep(5,5)
 G  rep(6,6)
 G  rep(7,7)
 G  rep(8,8)
 G  rep(9,9)
 G  rep(10,10)
 G  rep(11,11)
 G  rep(12,12)
 G  rep(13,13)
 G  rep(14,14)
 G  rep(15,15)
 G  rep(17,17)
 G  rep(18,18)
 G  rep(19,19)
 G  rep(20,20)
 G  rep(20,21)
 G  rep(22,22)
 G  rep(23,23)
 G  rep(24,24)
 G  rep(25,25)
 G  rep(26,26)
 G  rep(27,27)
 G  rep(28,28)
 G  rep(29,29)
 L  constr_0
 L  constr_1
 L  constr_2
 L  constr_3
 L  constr_4
COLUMNS
    MARKER    'MARKER'                 'INTORG'
    list[0]   OBJ       10
    list[0]   cost      15
    list[0]   weight    10
    list[0]   rep(0,0)  -1
    list[1]   OBJ       1
    list[1]   cost      15
    list[1]   weight    10
    list[1]   rep(1,1)  -1
    list[2]   OBJ       -10
    list[2]   cost      150
    list[2]   weight    10
    list[2]   rep(2,2)  -1
    list[3]   OBJ       5
    list[3]   cost      150
    list[3]   weight    190
    list[3]   rep(3,3)  -1
    list[4]   OBJ       10
    list[4]   cost      2
    list[4]   weight    50
    list[4]   rep(4,4)  -1
    list[5]   OBJ       99
    list[5]   cost      1
    list[5]   weight    199
    list[5]   rep(5,5)  -1
    list[6]   OBJ       1
    list[6]   cost      15
    list[6]   weight    5
    list[6]   rep(6,6)  -1
    list[7]   OBJ       -25
    list[7]   cost      100
    list[7]   weight    5
    list[7]   rep(7,7)  -1
    list[8]   OBJ       150
    list[8]   cost      200
    list[8]   weight    30
    list[8]   rep(8,8)  -1
    list[9]   OBJ       20
    list[9]   cost      15
    list[9]   weight    10
    list[9]   rep(9,9)  -1
    list[10]  OBJ       10
    list[10]  cost      15
    list[10]  weight    3
    list[10]  rep(10,10)  -1
    list[11]  OBJ       -1
    list[11]  cost      15
    list[11]  weight    10
    list[11]  rep(11,11)  -1
    list[12]  OBJ       100
    list[12]  cost      100
    list[12]  weight    40
    list[12]  rep(12,12)  -1
    list[13]  OBJ       5
    list[13]  cost      15
    list[13]  weight    2
    list[13]  rep(13,13)  -1
    list[14]  OBJ       1
    list[14]  cost      1
    list[14]  weight    1
    list[14]  rep(14,14)  -1
    list[15]  OBJ       1
    list[15]  cost      1
    list[15]  weight    1
    list[15]  rep(15,15)  -1
    list[16]  OBJ       4
    list[16]  cost      1
    list[16]  weight    1
    list[16]  rep(0,16)  -1
    list[17]  OBJ       1
    list[17]  cost      5
    list[17]  weight    3
    list[17]  rep(17,17)  -1
    list[18]  OBJ       5
    list[18]  cost      15
    list[18]  weight    10
    list[18]  rep(18,18)  -1
    list[19]  OBJ       49800
    list[19]  cost      200
    list[19]  weight    1100
    list[19]  rep(19,19)  -1
    list[20]  OBJ       49800
    list[20]  cost      200
    list[20]  weight    201
    list[20]  rep(20,20)  -1
    list[21]  OBJ       247999
    list[21]  cost      2001
    list[21]  weight    155
    list[21]  rep(20,21)  -1
    list[22]  OBJ       -40
    list[22]  cost      100
    list[22]  weight    15
    list[22]  rep(22,22)  -1
    list[23]  OBJ       15
    list[23]  cost      10
    list[23]  weight    3
    list[23]  rep(23,23)  -1
    list[24]  OBJ       10
    list[24]  cost      15
    list[24]  weight    10
    list[24]  rep(24,24)  -1
    list[25]  OBJ       10
    list[25]  cost      15
    list[25]  weight    10
    list[25]  rep(25,25)  -1
    list[26]  OBJ       33
    list[26]  cost      45
    list[26]  weight    7
    list[26]  rep(26,26)  -1
    list[27]  OBJ       1.3754999999999998e+02
    list[27]  cost      50.87
    list[27]  rep(27,27)  -1
    list[28]  OBJ       30
    list[28]  cost      175
    list[28]  weight    200
    list[28]  rep(28,28)  -1
    list[29]  OBJ       10
    list[29]  cost      15
    list[29]  weight    2
    list[29]  rep(29,29)  -1
    indicator[0]  rep(0,0)  1
    indicator[0]  rep(0,16)  1
    indicator[0]  constr_1  1
    indicator[1]  rep(1,1)  1
    indicator[2]  rep(2,2)  1
    indicator[3]  rep(3,3)  1
    indicator[3]  constr_3  1
    indicator[3]  constr_4  1
    indicator[4]  rep(4,4)  1
    indicator[5]  rep(5,5)  1
    indicator[6]  rep(6,6)  1
    indicator[7]  rep(7,7)  1
    indicator[8]  rep(8,8)  1
    indicator[9]  rep(9,9)  1
    indicator[10]  rep(10,10)  1
    indicator[10]  constr_0  1
    indicator[10]  constr_3  1
    indicator[10]  constr_4  1
    indicator[11]  rep(11,11)  1
    indicator[12]  rep(12,12)  1
    indicator[13]  rep(13,13)  1
    indicator[14]  rep(14,14)  1
    indicator[15]  rep(15,15)  1
    indicator[15]  constr_1  1
    indicator[17]  rep(17,17)  1
    indicator[18]  rep(18,18)  1
    indicator[19]  rep(19,19)  1
    indicator[19]  constr_2  1
    indicator[20]  rep(20,20)  1
    indicator[20]  rep(20,21)  1
    indicator[20]  constr_2  1
    indicator[22]  rep(22,22)  1
    indicator[23]  rep(23,23)  1
    indicator[23]  constr_0  1
    indicator[24]  rep(24,24)  1
    indicator[25]  rep(25,25)  1
    indicator[26]  rep(26,26)  1
    indicator[27]  rep(27,27)  1
    indicator[28]  rep(28,28)  1
    indicator[29]  rep(29,29)  1
    MARKER    'MARKER'                 'INTEND'
RHS
    RHS1      OBJ       -200
    RHS1      cost      200
    RHS1      weight    200
    RHS1      constr_0  1
    RHS1      constr_1  1
    RHS1      constr_2  1
    RHS1      constr_3  1
    RHS1      constr_4  1
BOUNDS
 BV BND1      list[0] 
 BV BND1      list[1] 
 BV BND1      list[2] 
 BV BND1      list[3] 
 BV BND1      list[4] 
 BV BND1      list[5] 
 BV BND1      list[6] 
 BV BND1      list[7] 
 BV BND1      list[8] 
 BV BND1      list[9] 
 BV BND1      list[10]
 BV BND1      list[11]
 BV BND1      list[12]
 BV BND1      list[13]
 BV BND1      list[14]
 BV BND1      list[15]
 BV BND1      list[16]
 BV BND1      list[17]
 BV BND1      list[18]
 BV BND1      list[19]
 BV BND1      list[20]
 BV BND1      list[21]
 BV BND1      list[22]
 BV BND1      list[23]
 BV BND1      list[24]
 BV BND1      list[25]
 BV BND1      list[26]
 BV BND1      list[27]
 BV BND1      list[28]
 BV BND1      list[29]
 LI BND1      indicator[0]  0
 LI BND1      indicator[1]  0
 LI BND1      indicator[2]  0
 LI BND1      indicator[3]  0
 LI BND1      indicator[4]  0
 LI BND1      indicator[5]  0
 LI BND1      indicator[6]  0
 LI BND1      indicator[7]  0
 LI BND1      indicator[8]  0
 LI BND1      indicator[9]  0
 LI BND1      indicator[10]  0
 LI BND1      indicator[11]  0
 LI BND1      indicator[12]  0
 LI BND1      indicator[13]  0
 LI BND1      indicator[14]  0
 LI BND1      indicator[15]  0
 LI BND1      indicator[17]  0
 LI BND1      indicator[18]  0
 LI BND1      indicator[19]  0
 LI BND1      indicator[20]  0
 LI BND1      indicator[22]  0
 LI BND1      indicator[23]  0
 LI BND1      indicator[24]  0
 LI BND1      indicator[25]  0
 LI BND1      indicator[26]  0
 LI BND1      indicator[27]  0
 LI BND1      indicator[28]  0
 LI BND1      indicator[29]  0
ENDATA
