phase2/problem_log/problem917.sol
# Solution for model Resale_Solver
# Objective value = 135
list[0] 0
list[1] 0
list[2] 0
list[3] 0
list[4] 0
list[5] 0
list[6] 0
list[7] 1
list[8] 0
list[9] 0
list[10] 0
list[11] 0
list[12] 0
list[13] 0
list[14] 0
list[15] 0
list[16] 0
list[17] 0
list[18] 0
list[19] 0
list[20] 0
list[21] 0
list[22] 1
list[23] 0
list[24] 0
list[25] 0
list[26] 0
list[27] 0
list[28] 0
list[29] 0
indicator[0] 0
indicator[1] 0
indicator[2] 0
indicator[3] 0
indicator[4] 0
indicator[5] 0
indicator[6] 0
indicator[7] 1
indicator[8] 0
indicator[9] 0
indicator[10] 0
indicator[11] 0
indicator[12] 0
indicator[13] 0
indicator[14] 0
indicator[15] 0
indicator[17] 0
indicator[18] 0
indicator[19] 0
indicator[20] 0
indicator[22] 1
indicator[23] 0
indicator[24] 0
indicator[25] 0
indicator[26] 0
indicator[27] 0
indicator[28] 0
indicator[29] 0
